(set-logic QF_S)
(declare-fun var0 () String)
(declare-fun var1 () String)
(declare-fun var2 () String)
(declare-fun var3 () String)
(declare-fun var4 () String)
(declare-fun var5 () String)
(declare-fun var6 () String)
(declare-fun var7 () String)
(declare-fun var8 () String)
(declare-fun var9 () String)
(declare-fun var10 () String)
(declare-fun var11 () String)
(declare-fun var12 () String)
(declare-fun var13 () String)
(declare-fun var14 () String)
(declare-fun var15 () String)
(declare-fun var16 () String)
(declare-fun var17 () String)
(declare-fun var18 () String)
(declare-fun var19 () String)
(declare-fun var20 () String)
(declare-fun var21 () String)
(declare-fun var22 () String)
(declare-fun var23 () String)
(declare-fun var24 () String)
(declare-fun var25 () String)
(declare-fun var26 () String)
(declare-fun var27 () String)
(declare-fun var28 () String)
(declare-fun var29 () String)
(declare-fun var30 () String)
(declare-fun var31 () String)
(declare-fun var32 () String)
(declare-fun var33 () String)
(declare-fun var34 () String)
(declare-fun var35 () String)
(declare-fun var36 () String)
(declare-fun var37 () String)
(declare-fun var38 () String)
(declare-fun var39 () String)
(declare-fun var40 () String)
(declare-fun var41 () String)
(declare-fun var42 () String)
(declare-fun var43 () String)
(declare-fun var44 () String)
(declare-fun var45 () String)
(declare-fun var46 () String)
(declare-fun var47 () String)
(declare-fun var48 () String)
(declare-fun var49 () String)
(declare-fun var50 () String)
(declare-fun var51 () String)
(declare-fun var52 () String)
(declare-fun var53 () String)
(declare-fun var54 () String)
(declare-fun var55 () String)
(declare-fun var56 () String)
(declare-fun var57 () String)
(declare-fun var58 () String)
(declare-fun var59 () String)
(declare-fun var60 () String)
(assert (= var0 (Concat var1 var2)))
(assert (= var2 (Concat var3 var4)))
(assert (= var4 (Concat var5 var6)))
(assert (= var6 (Concat var7 var8)))
(assert (= var8 (Concat var9 var10)))
(assert (= var10 (Concat var11 var12)))
(assert (= var12 (Concat var13 var14)))
(assert (= var14 (Concat var15 var16)))
(assert (= var16 (Concat var17 var18)))
(assert (= var18 (Concat var19 var20)))
(assert (= var20 (Concat var21 var22)))
(assert (= var22 (Concat var23 var24)))
(assert (= var24 (Concat var25 var26)))
(assert (= var26 (Concat var27 var28)))
(assert (= var28 (Concat var29 var30)))
(assert (= var30 (Concat var31 var32)))
(assert (= var32 (Concat var33 var34)))
(assert (= var34 (Concat var35 var36)))
(assert (= var36 (Concat var37 var38)))
(assert (= var38 (Concat var39 var40)))
(assert (= var40 (Concat var41 var42)))
(assert (= var42 (Concat var43 var44)))
(assert (= var44 (Concat var45 var46)))
(assert (= var46 (Concat var47 var48)))
(assert (= var48 (Concat var49 var50)))
(assert (= var50 (Concat var51 var52)))
(assert (= var52 (Concat var53 var54)))
(assert (= var54 (Concat var55 var56)))
(assert (= var56 (Concat var57 var58)))
(assert (= var58 (Concat var59 var60)))
(assert (= var0 "solution"))
(assert (= "c" (CharAt var18 793)))
(assert (= "U" (CharAt var26 187)))
(assert (= "n" (CharAt var52 783)))
(assert (= "V" (CharAt var15 648)))
(assert (= "+" (CharAt var56 623)))
(assert (= "m" (CharAt var7 498)))
(assert (= "B" (CharAt var37 437)))
(assert (= "H" (CharAt var47 940)))
(assert (= "N" (CharAt var38 665)))
(assert (= "}" (CharAt var34 934)))
(assert (= "h" (CharAt var0 600)))
(assert (= "t" (CharAt var32 883)))
(assert (= "5" (CharAt var7 307)))
(assert (= "q" (CharAt var26 536)))
(assert (= "f" (CharAt var47 577)))
(assert (= "c" (CharAt var30 947)))
(assert (= "9" (CharAt var36 758)))
(assert (= "}" (CharAt var1 862)))
(assert (= "l" (CharAt var44 633)))
(assert (= "X" (CharAt var48 548)))
(assert (= "s" (CharAt var50 118)))
(assert (= "/" (CharAt var0 16)))
(assert (= "A" (CharAt var0 343)))
(assert (= "3" (CharAt var47 85)))
(assert (= "-" (CharAt var16 442)))
(assert (= "2" (CharAt var56 573)))
(assert (= "'" (CharAt var18 861)))
(assert (= "S" (CharAt var30 218)))
(assert (= "p" (CharAt var49 344)))
(assert (= "~" (CharAt var38 924)))
(assert (= "e" (CharAt var48 18)))
(assert (= "L" (CharAt var42 203)))
(assert (= "j" (CharAt var58 429)))
(assert (= "\\" (CharAt var14 835)))
(assert (= "n" (CharAt var25 108)))
(assert (= "[" (CharAt var7 942)))
(assert (= "V" (CharAt var39 554)))
(assert (= "~" (CharAt var35 514)))
(assert (= "(" (CharAt var7 86)))
(assert (= "N" (CharAt var48 906)))
(assert (= "," (CharAt var38 322)))
(assert (= "R" (CharAt var14 108)))
(assert (= "H" (CharAt var49 63)))
(assert (= "Y" (CharAt var15 427)))
(assert (= "k" (CharAt var29 899)))
(assert (= "B" (CharAt var60 598)))
(assert (= "C" (CharAt var32 105)))
(assert (= "]" (CharAt var28 768)))
(assert (= "Z" (CharAt var14 485)))
(assert (= "j" (CharAt var34 796)))
(assert (= "Y" (CharAt var30 725)))
(assert (= "!" (CharAt var55 289)))
(assert (= "-" (CharAt var45 632)))
(assert (= "T" (CharAt var58 791)))
(assert (= "," (CharAt var1 278)))
(assert (= "D" (CharAt var52 952)))
(assert (= "/" (CharAt var54 512)))
(assert (= "J" (CharAt var29 832)))
(assert (= "z" (CharAt var0 622)))
(assert (= "p" (CharAt var7 528)))
(assert (= "#" (CharAt var50 817)))
(assert (= "O" (CharAt var23 660)))
(assert (= "G" (CharAt var4 828)))
(assert (= "S" (CharAt var51 430)))
(assert (= "5" (CharAt var10 38)))
(assert (= "l" (CharAt var24 911)))
(assert (= "H" (CharAt var23 563)))
(assert (= "z" (CharAt var16 650)))
(assert (= "^" (CharAt var11 500)))
(assert (= "L" (CharAt var6 99)))
(assert (= "{" (CharAt var51 66)))
(assert (= "K" (CharAt var22 735)))
(assert (= "8" (CharAt var45 295)))
(assert (= "E" (CharAt var54 510)))
(assert (= ")" (CharAt var27 186)))
(assert (= "+" (CharAt var23 307)))
(assert (= "a" (CharAt var51 162)))
(assert (= "8" (CharAt var0 748)))
(assert (= ":" (CharAt var41 58)))
(assert (= "`" (CharAt var35 868)))
(assert (= "|" (CharAt var35 292)))
(assert (= "8" (CharAt var33 775)))
(assert (= "a" (CharAt var39 720)))
(assert (= "i" (CharAt var57 889)))
(assert (= "-" (CharAt var50 915)))
(assert (= "q" (CharAt var34 585)))
(assert (= "L" (CharAt var9 199)))
(assert (= "V" (CharAt var56 595)))
(assert (= "O" (CharAt var48 969)))
(assert (= "n" (CharAt var27 302)))
(assert (= "b" (CharAt var45 476)))
(assert (= "P" (CharAt var58 3)))
(assert (= "A" (CharAt var3 84)))
(assert (= "9" (CharAt var50 843)))
(assert (= "R" (CharAt var24 724)))
(assert (= ">" (CharAt var2 62)))
(assert (= "'" (CharAt var36 573)))
(assert (= "k" (CharAt var20 72)))
(assert (= "#" (CharAt var16 551)))
(assert (= "C" (CharAt var11 121)))
(assert (= "o" (CharAt var6 760)))
(assert (= "D" (CharAt var29 350)))
(assert (= "@" (CharAt var55 887)))
(assert (= "G" (CharAt var24 475)))
(assert (= "$" (CharAt var19 854)))
(assert (= "@" (CharAt var52 850)))
(assert (= "A" (CharAt var11 518)))
(assert (= "#" (CharAt var12 764)))
(assert (= "U" (CharAt var15 430)))
(assert (= "-" (CharAt var15 51)))
(assert (= "}" (CharAt var59 535)))
(assert (= "H" (CharAt var60 428)))
(assert (= "0" (CharAt var23 201)))
(assert (= "M" (CharAt var51 96)))
(assert (= ":" (CharAt var29 535)))
(assert (= "7" (CharAt var17 823)))
(assert (= "~" (CharAt var16 467)))
(assert (= "0" (CharAt var3 359)))
(assert (= "C" (CharAt var30 31)))
(assert (= "M" (CharAt var22 604)))
(assert (= "j" (CharAt var44 543)))
(assert (= "@" (CharAt var38 880)))
(assert (= "^" (CharAt var33 642)))
(assert (= "W" (CharAt var42 625)))
(assert (= "Y" (CharAt var54 695)))
(assert (= "R" (CharAt var37 51)))
(assert (= "#" (CharAt var40 168)))
(assert (= "k" (CharAt var41 272)))
(assert (= "`" (CharAt var46 879)))
(assert (= "5" (CharAt var28 618)))
(assert (= "A" (CharAt var14 334)))
(assert (= "." (CharAt var45 885)))
(assert (= "v" (CharAt var44 833)))
(assert (= "o" (CharAt var48 655)))
(assert (= "0" (CharAt var57 937)))
(assert (= "s" (CharAt var9 43)))
(assert (= "=" (CharAt var2 122)))
(assert (= "u" (CharAt var3 15)))
(assert (= "A" (CharAt var59 681)))
(assert (= "A" (CharAt var59 487)))
(assert (= "~" (CharAt var35 746)))
(assert (= "/" (CharAt var5 481)))
(assert (= "R" (CharAt var1 539)))
(assert (= "L" (CharAt var54 947)))
(assert (= "M" (CharAt var11 375)))
(assert (= "V" (CharAt var11 891)))
(assert (= ")" (CharAt var53 919)))
(assert (= "]" (CharAt var40 653)))
(assert (= "]" (CharAt var33 676)))
(assert (= "j" (CharAt var13 912)))
(assert (= "8" (CharAt var47 223)))
(assert (= "B" (CharAt var22 806)))
(assert (= "R" (CharAt var39 849)))
(assert (= "-" (CharAt var31 88)))
(assert (= "e" (CharAt var8 688)))
(assert (= "t" (CharAt var5 828)))
(assert (= "^" (CharAt var2 262)))
(assert (= "w" (CharAt var7 312)))
(assert (= "s" (CharAt var56 359)))
(assert (= "O" (CharAt var31 992)))
(assert (= "G" (CharAt var58 608)))
(assert (= "v" (CharAt var16 525)))
(assert (= "o" (CharAt var31 828)))
(assert (= "y" (CharAt var17 147)))
(assert (= "6" (CharAt var25 501)))
(assert (= "Q" (CharAt var13 607)))
(assert (= "6" (CharAt var16 71)))
(assert (= "]" (CharAt var55 442)))
(assert (= "l" (CharAt var13 853)))
(assert (= "'" (CharAt var58 782)))
(assert (= "\\" (CharAt var12 14)))
(assert (= "+" (CharAt var50 689)))
(assert (= "`" (CharAt var41 886)))
(assert (= "2" (CharAt var31 305)))
(assert (= "O" (CharAt var15 100)))
(assert (= "V" (CharAt var59 290)))
(assert (= "&" (CharAt var18 639)))
(assert (= "U" (CharAt var31 782)))
(assert (= "3" (CharAt var59 128)))
(assert (= "g" (CharAt var34 849)))
(assert (= "u" (CharAt var44 941)))
(assert (= "Z" (CharAt var36 405)))
(assert (= "0" (CharAt var8 646)))
(assert (= "0" (CharAt var9 774)))
(assert (= "2" (CharAt var35 467)))
(assert (= "?" (CharAt var40 684)))
(assert (= "S" (CharAt var16 885)))
(assert (= "Q" (CharAt var30 892)))
(assert (= "R" (CharAt var8 161)))
(assert (= "z" (CharAt var34 212)))
(assert (= "s" (CharAt var4 557)))
(assert (= "," (CharAt var7 17)))
(assert (= "P" (CharAt var45 629)))
(assert (= "k" (CharAt var42 987)))
(assert (= "y" (CharAt var56 658)))
(assert (= "8" (CharAt var29 109)))
(assert (= "}" (CharAt var10 91)))
(assert (= "@" (CharAt var12 275)))
(assert (= "}" (CharAt var20 745)))
(assert (= "L" (CharAt var1 7)))
(assert (= "4" (CharAt var22 217)))
(assert (= "d" (CharAt var31 423)))
(assert (= "D" (CharAt var1 865)))
(assert (= "@" (CharAt var38 131)))
(assert (= "x" (CharAt var49 433)))
(assert (= "2" (CharAt var29 739)))
(assert (= "$" (CharAt var15 72)))
(assert (= "3" (CharAt var34 0)))
(assert (= "%" (CharAt var48 730)))
(assert (= "{" (CharAt var6 681)))
(assert (= "J" (CharAt var42 698)))
(assert (= "9" (CharAt var38 66)))
(assert (= "\\" (CharAt var21 0)))
(assert (= "i" (CharAt var48 316)))
(assert (= ">" (CharAt var1 835)))
(assert (= ":" (CharAt var42 840)))
(assert (= "5" (CharAt var9 24)))
(assert (= "L" (CharAt var18 456)))
(assert (= "T" (CharAt var14 74)))
(assert (= "I" (CharAt var33 505)))
(assert (= "Y" (CharAt var27 81)))
(assert (= "T" (CharAt var25 732)))
(assert (= "&" (CharAt var46 583)))
(assert (= "}" (CharAt var54 116)))
(assert (= "Q" (CharAt var25 233)))
(assert (= "(" (CharAt var39 689)))
(assert (= "k" (CharAt var11 937)))
(assert (= "{" (CharAt var2 955)))
(assert (= "h" (CharAt var33 473)))
(assert (= "y" (CharAt var2 23)))
(assert (= "|" (CharAt var16 691)))
(assert (= ";" (CharAt var35 970)))
(assert (= "`" (CharAt var38 198)))
(assert (= "t" (CharAt var42 189)))
(assert (= "y" (CharAt var37 1)))
(assert (= "O" (CharAt var17 861)))
(assert (= "T" (CharAt var4 237)))
(assert (= "b" (CharAt var51 146)))
(assert (= "O" (CharAt var3 207)))
(assert (= "R" (CharAt var11 249)))
(assert (= "=" (CharAt var15 346)))
(assert (= "7" (CharAt var32 285)))
(assert (= "(" (CharAt var5 357)))
(assert (= "P" (CharAt var48 463)))
(assert (= "Z" (CharAt var58 284)))
(assert (= "0" (CharAt var55 999)))
(assert (= "(" (CharAt var57 208)))
(assert (= "}" (CharAt var34 707)))
(assert (= "*" (CharAt var54 246)))
(assert (= "." (CharAt var17 57)))
(assert (= "%" (CharAt var34 498)))
(assert (= "k" (CharAt var13 468)))
(assert (= "V" (CharAt var45 742)))
(assert (= "?" (CharAt var0 740)))
(assert (= "*" (CharAt var2 290)))
(assert (= "h" (CharAt var9 270)))
(assert (= "P" (CharAt var28 12)))
(assert (= "." (CharAt var6 436)))
(assert (= "]" (CharAt var13 147)))
(assert (= "6" (CharAt var59 250)))
(assert (= "J" (CharAt var14 369)))
(assert (= "x" (CharAt var29 586)))
(assert (= "M" (CharAt var37 964)))
(assert (= "R" (CharAt var33 898)))
(assert (= "A" (CharAt var3 297)))
(assert (= "S" (CharAt var38 977)))
(assert (= "0" (CharAt var14 704)))
(assert (= "u" (CharAt var26 114)))
(assert (= "v" (CharAt var60 558)))
(assert (= "`" (CharAt var60 981)))
(assert (= "[" (CharAt var58 632)))
(assert (= "t" (CharAt var7 760)))
(assert (= "R" (CharAt var18 549)))
(assert (= "\"" (CharAt var30 429)))
(assert (= "1" (CharAt var27 929)))
(assert (= "j" (CharAt var4 543)))
(assert (= ">" (CharAt var40 587)))
(assert (= "~" (CharAt var31 947)))
(assert (= "r" (CharAt var46 771)))
(assert (= "5" (CharAt var52 847)))
(assert (= "[" (CharAt var45 1)))
(check-sat)